&INPUTPP
prefix = '0prefix0'
outdir = './out'
filplot = 'homo'
plot_num = 7
kband = 0numhomo0 
kpoint = 1
lsign = .TRUE.
/
&PLOT
iflag = 3
output_format = 6
fileout = 'homo.cube'
/
